HUN,8,6,911
0,30,2,30,3,27,5,26,1,24,4,28
5,22,1,22,2,23,4,25,0,29,3,22
4,24,5,22,3,23,2,21,1,25,0,21
0,29,3,30,2,28,5,29,4,24,1,29
3,30,2,29,4,30,5,23,0,29,1,26
2,30,4,24,1,24,5,24,3,26,0,21
4,21,0,25,5,29,3,27,2,21,1,21
4,30,5,28,0,28,2,24,1,21,3,21
